\* Source Pyomo model name=unknown *\

min 
x43:
+0 x1
+0 x10
+0 x11
+0.0010640231508400417 x12
+0.0010103763036215575 x13
+0.001018097956441864 x14
+0.00098405191151505972 x15
+0.0010521866029799258 x16
+0.022145952808473313 x17
+0.012259762788498191 x2
+0.049523225803646362 x3
+0.0010345638538077724 x4
+0.0009439303740207362 x5
+0.0010263024787295946 x6
+0.00097031778221525887 x7
+0 x8
+0 x9

s.t.

c_e_x44_:
+1 x17
-1 x18
= 0

c_e_x45_:
-1 x19
+1 x2
= 0

c_e_x46_:
-1 x20
+1 x3
= 0

c_e_x47_:
+1 x12
-0.57973635241440391 x34
= 0

c_e_x48_:
-0.78938550260020224 x35
+1 x4
= 0

c_e_x49_:
+1 x13
-0.82238213985706687 x36
= 0

c_e_x50_:
-0.93507624451936111 x37
+1 x5
= 0

c_e_x51_:
+1 x14
-0.094743302702725629 x38
= 0

c_e_x52_:
-0.70958145901011838 x39
+1 x6
= 0

c_e_x53_:
+1 x15
-0.70813101264903155 x40
= 0

c_e_x54_:
+1 x16
-1.5269416705629035 x41
= 0

c_e_x55_:
-1 x18
+1 x34
= 0

c_e_x56_:
-1 x28
+1 x35
= 0

c_e_x57_:
-1 x20
+1 x36
= 0

c_e_x58_:
-1 x19
+1 x37
= 0

c_e_x59_:
-1 x24
+1 x38
= 0

c_e_x60_:
-1 x25
+1 x39
= 0

c_e_x61_:
-1 x26
+1 x40
= 0

c_e_x62_:
-1 x27
+1 x41
= 0

c_e_x63_:
-1 x18
+1 x34
= 0

c_e_x64_:
-1 x19
+1 x37
= 0

c_e_x65_:
-1 x20
+1 x36
= 0

c_e_x66_:
-1 x24
+1 x38
= 0

c_e_x67_:
-1 x25
+1 x39
= 0

c_e_x68_:
-1 x26
+1 x40
= 0

c_e_x69_:
-1 x27
+1 x41
= 0

c_e_x70_:
-1 x28
+1 x35
= 0

c_e_x71_:
+1 x12
-1 x21
= 0

c_e_x72_:
-1 x22
+1 x5
= 0

c_e_x73_:
+1 x13
-1 x23
= 0

c_e_x74_:
+1 x14
-1 x29
= 0

c_e_x75_:
-1 x30
+1 x6
= 0

c_e_x76_:
+1 x15
-1 x31
= 0

c_e_x77_:
+1 x16
-1 x32
= 0

c_e_x78_:
-1 x33
+1 x4
= 0

c_e_x79_:
+1 x33
= 893.92358810774806

c_e_x80_:
+1 x29
= 8.0602017989144983

c_e_x81_:
+1 x30
= 26.839060678765623

c_e_x82_:
+1 x31
= 131.97693078292295

c_e_x83_:
+1 x32
= 418.14251368886318

c_e_x84_:
+1 x1
-1 x33
= 0

c_e_x85_:
-1 x29
+1 x8
= 0

c_e_x86_:
-1 x30
+1 x9
= 0

c_e_x87_:
+1 x10
-1 x31
= 0

c_e_x88_:
+1 x11
-1 x32
= 0

c_e_x89_:
+1 x21
+1 x22
+1 x23
-1 x24
-1 x25
-1 x26
-1 x27
-1 x28
= 0

c_e_x90_:
-1 x21
-1 x22
-1 x23
+1 x7
= 0

c_e_x91_:
+0 x17
+0.073200000000000001 x2
+0 x3
-1 x42
= 0

c_u_x92_:
+1 x42
<= 87.213999999999999

c_e_ONE_VAR_CONSTANT: 
ONE_VAR_CONSTANT = 1.0

bounds
   0 <= x1 <= +inf
   0 <= x2 <= +inf
   0 <= x3 <= +inf
   0 <= x4 <= 999999
   0 <= x5 <= 999999
   0 <= x6 <= 999999
   0 <= x7 <= +inf
   0 <= x8 <= +inf
   0 <= x9 <= +inf
   0 <= x10 <= +inf
   0 <= x11 <= +inf
   0 <= x12 <= 999999
   0 <= x13 <= 999999
   0 <= x14 <= 999999
   0 <= x15 <= 999999
   0 <= x16 <= 999999
   429.64138039235002 <= x17 <= 429.64138039235002
   0 <= x18 <= +inf
   0 <= x19 <= +inf
   0 <= x20 <= +inf
   0 <= x21 <= +inf
   0 <= x22 <= +inf
   0 <= x23 <= +inf
   0 <= x24 <= +inf
   0 <= x25 <= +inf
   0 <= x26 <= +inf
   0 <= x27 <= +inf
   0 <= x28 <= +inf
   0 <= x29 <= +inf
   0 <= x30 <= +inf
   0 <= x31 <= +inf
   0 <= x32 <= +inf
   0 <= x33 <= +inf
   0 <= x34 <= +inf
   0 <= x35 <= +inf
   0 <= x36 <= +inf
   0 <= x37 <= +inf
   0 <= x38 <= +inf
   0 <= x39 <= +inf
   0 <= x40 <= +inf
   0 <= x41 <= +inf
   0 <= x42 <= +inf
end
